c WARNING: for repeatability, setting FPU to use double precision
d VARIABLES            27306        
d CONSTRAINTS          93032        
c ============================[ Problem Statistics ]=============================
c |                                                                             |
c |  Number of variables:         27306                                         |
c |  Number of clauses:           93032                                         |
c |  Parse time:                   0.01 s                                       |
c |                                                                             |
c ============================[ Search Statistics ]==============================
c | Conflicts |          ORIGINAL         |          LEARNT          | Progress |
c |           |    Vars  Clauses Literals |    Limit  Clauses Lit/Cl |          |
c ===============================================================================
c |       100 |   17940    68998   173513 |    25299      100     10 | 34.300 % |
c |       250 |   17940    68998   173513 |    27829      250     42 | 34.300 % |
c |       475 |   17940    68998   173513 |    30612      475     45 | 34.300 % |
c |       812 |   17940    68998   173513 |    33673      812     42 | 34.300 % |
c |      1318 |   17936    68990   173493 |    37040     1313     53 | 34.315 % |
c |      2077 |   17932    68966   173433 |    40744     2066     60 | 34.329 % |
c |      3216 |   17932    68966   173433 |    44819     3205     68 | 34.329 % |
c |      4924 |   17931    68962   173423 |    49301     4911     72 | 34.333 % |
c |      7486 |   17930    68958   173413 |    54231     7471     93 | 34.337 % |
c |     11330 |   17930    68958   173413 |    59654    11315    100 | 34.337 % |
c |     17096 |   17930    68958   173413 |    65619    17081    101 | 34.337 % |
c |     25745 |   17930    68958   173413 |    72181    25730    101 | 34.337 % |
c |     38719 |   17930    68958   173413 |    79399    38704     98 | 34.337 % |
c |     58180 |   17930    68958   173413 |    87339    58165     96 | 34.337 % |
c |     87372 |   17929    68954   173403 |    96073    87354     95 | 34.340 % |
c |    131161 |   17929    68954   173403 |   105681    45159     74 | 34.340 % |
c |    196845 |   17925    68938   173363 |   116249   110837     72 | 34.355 % |
c |    295371 |   17925    68938   173363 |   127874   101364     60 | 34.355 % |
c |    443160 |   17920    68918   173313 |   140661   129621     62 | 34.373 % |
c ===============================================================================
c restarts              : 1278
c conflicts             : 610425         (4805 /sec)
c decisions             : 792935         (0.00 % random) (6242 /sec)
c propagations          : 416311973      (3277223 /sec)
c conflict literals     : 38414540       (52.42 % deleted)
d RESTARTS             1278
d FAILURES             610425       
d NODES                792935       
d BACKTRACKS           792935       
d PROPAGATIONS         416311973    
d NOGOODSIZE           62.93 
d MEMORY               85.00 
d TIME                 127.032 

s UNSATISFIABLE
